problems/Promedus_27/Promedus_27.gr
p tw 410 707
149 108
410 67
410 81
67 81
409 135
409 410
135 410
408 1
408 409
1 409
407 113
407 408
113 408
406 100
406 407
100 407
405 117
405 406
117 406
404 73
404 405
73 405
403 69
403 404
69 404
402 63
402 403
63 403
401 163
401 402
163 402
400 121
400 401
121 401
399 19
399 400
19 400
398 86
398 399
86 399
397 150
397 398
150 398
396 166
396 397
166 397
395 120
395 396
120 396
394 102
394 395
102 395
393 168
393 394
168 394
392 47
392 393
47 393
391 58
391 392
58 392
390 112
390 391
112 391
389 38
389 390
38 390
388 110
388 389
110 389
387 107
387 388
107 388
386 148
386 387
148 387
385 119
385 386
119 386
384 161
384 385
161 385
383 10
383 384
10 384
382 144
382 383
144 383
381 122
381 382
122 382
380 160
380 381
160 381
379 92
379 380
92 380
378 88
378 379
88 379
377 146
377 378
146 378
376 61
376 377
61 377
375 136
375 376
136 376
374 132
374 375
132 375
373 7
373 374
7 374
372 5
372 373
5 373
371 4
371 372
4 372
370 31
370 371
31 371
369 55
369 370
55 370
368 94
368 369
94 369
367 101
367 368
101 368
366 77
366 367
77 367
365 153
365 366
153 366
364 74
364 365
74 365
363 105
363 364
105 364
362 111
362 363
111 363
361 138
361 362
138 362
360 95
360 361
95 361
27 360
359 128
359 168
128 168
358 42
358 359
42 359
96 358
357 45
357 51
45 51
356 4
356 357
4 357
355 168
355 356
168 356
354 11
354 355
11 355
353 55
353 354
55 354
352 60
352 353
60 353
351 154
351 352
154 352
350 80
350 351
80 351
349 74
349 350
74 350
348 63
348 349
63 349
347 3
347 348
3 348
346 36
346 347
36 347
345 119
345 346
119 346
344 173
344 345
173 345
343 150
343 344
150 344
15 343
342 135
342 130
135 130
341 43
341 342
43 342
340 56
340 341
56 341
339 155
339 340
155 340
338 73
338 339
73 339
337 25
337 338
25 338
336 28
336 337
28 337
335 57
335 336
57 336
334 166
334 335
166 335
333 114
333 334
114 334
332 97
332 333
97 333
331 70
331 332
70 332
330 22
330 331
22 331
329 85
329 330
85 330
328 78
328 329
78 329
327 17
327 328
17 328
326 131
326 327
131 327
325 148
325 326
148 326
324 161
324 325
161 325
323 144
323 324
144 324
322 122
322 323
122 323
321 92
321 322
92 322
320 160
320 321
160 321
319 151
319 320
151 320
318 49
318 319
49 319
317 157
317 318
157 318
316 146
316 317
146 317
315 59
315 316
59 316
314 71
314 315
71 315
313 62
313 314
62 314
312 55
312 313
55 313
311 32
311 312
32 312
310 9
310 311
9 311
309 65
309 310
65 310
308 90
308 309
90 309
307 147
307 308
147 308
306 66
306 307
66 307
305 154
305 306
154 306
304 124
304 305
124 305
303 24
303 304
24 304
302 46
302 303
46 303
301 68
301 302
68 302
300 172
300 301
172 301
299 53
299 300
53 300
298 48
298 299
48 299
297 69
297 298
69 298
296 29
296 297
29 297
295 163
295 296
163 296
294 86
294 295
86 295
293 98
293 294
98 294
292 158
292 293
158 293
291 51
291 292
51 292
290 102
290 291
102 291
289 47
289 290
47 290
288 6
288 289
6 289
287 87
287 288
87 288
286 39
286 287
39 287
285 38
285 286
38 286
284 167
284 285
167 285
283 143
283 284
143 284
282 139
282 283
139 283
281 118
281 282
118 282
280 13
280 281
13 281
279 36
279 280
36 280
278 3
278 279
3 279
277 119
277 278
119 278
276 34
276 277
34 277
275 89
275 276
89 276
274 45
274 275
45 275
273 123
273 274
123 274
272 12
272 273
12 273
271 60
271 272
60 272
270 76
270 271
76 271
269 141
269 270
141 270
268 159
268 269
159 269
267 132
267 268
132 268
266 54
266 267
54 267
265 5
265 266
5 266
264 106
264 265
106 265
263 41
263 264
41 264
262 35
262 263
35 263
261 104
261 262
104 262
260 77
260 261
77 261
259 74
259 260
74 260
258 165
258 259
165 259
257 64
257 258
64 258
256 138
256 257
138 257
255 116
255 256
116 256
254 81
254 255
81 255
253 84
253 254
84 254
252 67
252 253
67 253
251 33
251 252
33 252
250 1
250 251
1 251
249 113
249 250
113 250
248 164
248 249
164 249
247 40
247 248
40 248
246 23
246 247
23 247
245 117
245 246
117 246
244 162
244 245
162 245
243 137
243 244
137 244
242 169
242 243
169 243
241 19
241 242
19 242
240 150
240 241
150 241
239 168
239 240
168 240
238 103
238 239
103 239
237 58
237 238
58 238
236 129
236 237
129 237
235 79
235 236
79 236
234 152
234 235
152 235
233 127
233 234
127 234
232 156
232 233
156 233
231 10
231 232
10 232
230 44
230 231
44 231
229 75
229 230
75 230
228 170
228 229
170 229
227 109
227 228
109 228
226 21
226 227
21 227
225 82
225 226
82 226
224 142
224 225
142 225
223 61
223 224
61 224
222 99
222 223
99 223
221 126
221 222
126 222
220 115
220 221
115 221
219 94
219 220
94 220
218 91
218 219
91 219
217 101
217 218
101 218
216 80
216 217
80 217
215 50
215 216
50 216
214 125
214 215
125 215
213 153
213 214
153 214
212 134
212 213
134 213
211 72
211 212
72 212
210 145
210 211
145 211
209 83
209 210
83 210
208 100
208 209
100 209
207 176
207 208
176 208
206 133
206 207
133 207
205 2
205 206
2 206
204 14
204 205
14 205
203 20
203 204
20 204
202 18
202 203
18 203
201 63
201 202
63 202
200 121
200 201
121 201
199 120
199 200
120 200
198 11
198 199
11 199
197 112
197 198
112 198
196 171
196 197
171 197
195 140
195 196
140 196
194 110
194 195
110 195
193 107
193 194
107 194
192 93
192 193
93 193
191 174
191 192
174 192
190 88
190 191
88 191
189 52
189 190
52 190
188 30
188 189
30 189
187 26
187 188
26 188
186 136
186 187
136 187
185 8
185 186
8 186
184 7
184 185
7 185
183 4
183 184
4 184
182 31
182 183
31 183
181 16
181 182
16 182
180 105
180 181
105 181
179 111
179 180
111 180
178 37
178 179
37 179
177 95
177 178
95 178
175 177
