problems/Promedus_27/Promedus_27.td
c read Graph
c width = 407
c time = 5 ms
c width = 177
c time = 264 ms
c width = 17
c time = 390 ms
c width = 16
c time = 2907 ms
c width = 15
c time = 5924 ms
c width = 15
c time = 299895 ms
s td 349 16 410
b 1 96 358
b 2 42 358 359
b 3 128 168 359
b 4 27 360
b 5 175 177
b 6 15 343
b 7 135 339 409 410
b 8 111 179 180 361
b 9 105 180 181 182
b 10 7 184 185 186
b 11 136 186 187 190
b 12 88 190 191 193
b 13 110 194 195 197
b 14 63 201 202 208
b 15 100 208 209 213
b 16 153 213 214 216
b 17 101 217 218 219
b 18 94 219 220 223
b 19 61 223 224 231
b 20 10 231 232 237
b 21 58 237 238 239
b 22 19 241 242 245
b 23 117 245 246 249
b 24 1 250 251 252
b 25 67 252 253 254
b 26 81 254 255 256
b 27 138 256 257 259
b 28 77 260 261 265
b 29 5 265 266 267
b 30 132 267 268 271
b 31 60 271 272 274
b 32 45 274 275 277
b 33 36 279 280 285
b 34 38 285 286 289
b 35 51 291 292 294
b 36 163 295 296 297
b 37 69 297 298 305
b 38 154 305 306 312
b 39 55 312 313 316
b 40 146 316 317 320
b 41 148 325 326 334
b 42 166 334 335 338
b 43 119 150 345 346
b 44 67 81 252 254 410
b 45 81 252 254 256 410
b 46 252 256 339 409 410
b 47 249 252 256 339 407 409
b 48 249 250 252 407 408 409
b 49 1 250 252 408 409
b 50 113 249 250 407 408
b 51 245 249 256 339 405 406 407
b 52 117 245 249 405 406
b 53 245 256 338 339 404 405 406 407
b 54 73 338 339 404 405
b 55 208 213 245 256 338 404 406 407
b 56 63 200 208 213 245 256 295 305 338 400 404
b 57 63 200 208 295 305 400 401 404
b 58 63 200 201 208 400 401
b 59 121 200 201 400 401
b 60 63 295 297 305 401 403 404
b 61 69 297 305 403 404
b 62 63 295 297 401 402 403
b 63 163 295 297 401 402
b 64 63 150 200 213 241 245 256 294 295 305 334 338 396 400
b 65 150 241 245 294 295 334 338 396 398 400
b 66 241 245 294 295 398 399 400
b 67 86 294 295 398 399
b 68 19 241 245 399 400
b 69 150 334 338 396 397 398
b 70 166 334 338 396 397
b 71 63 150 198 200 213 241 256 294 305 334 354 355 395 396
b 72 198 199 200 354 355 395 396
b 73 120 199 200 395 396
b 74 11 198 199 354 355
b 75 51 63 150 168 198 213 241 256 289 294 305 334 354 355 392 395
b 76 51 63 150 168 198 213 237 241 256 289 305 334 354 355 391 392
b 77 51 63 150 168 198 213 237 256 289 305 334 354 355 357 391 392
b 78 4 51 63 150 168 198 213 237 256 289 305 334 354 355 357 391
b 79 4 168 355 356 357
b 80 150 168 237 239 241 391 392
b 81 150 168 239 240 241
b 82 58 237 239 391 392
b 83 51 168 289 291 294 392 395
b 84 168 289 290 291 392 394 395
b 85 168 289 290 392 393 394
b 86 47 289 290 392 393
b 87 102 290 291 394 395
b 88 100 208 213 406 407
b 89 4 51 63 150 198 213 237 256 274 277 289 305 334 354 357 391
b 90 4 63 150 197 198 213 237 256 274 277 289 305 334 354 390 391
b 91 4 63 150 197 213 237 256 274 277 285 289 305 334 354 389 390
b 92 4 63 119 150 197 213 237 256 274 277 285 305 334 348 354 389
b 93 4 63 119 193 197 213 237 256 274 285 305 334 348 354 387 389
b 94 4 63 119 193 213 237 256 274 305 324 334 348 354 384 387 389
b 95 193 194 197 387 388 389
b 96 107 193 194 387 388
b 97 110 194 197 388 389
b 98 38 285 289 389 390
b 99 112 197 198 390 391
b 100 45 51 274 277 357
b 101 119 324 325 334 384 386 387
b 102 119 324 325 384 385 386
b 103 161 324 325 384 385
b 104 148 325 334 386 387
b 105 4 63 190 193 213 223 237 256 274 305 316 324 348 354 376 384
b 106 190 193 223 237 316 324 376 377 383 384
b 107 223 231 237 376 377 383 384
b 108 10 231 237 383 384
b 109 61 223 231 376 377
b 110 190 193 316 324 377 378 379 383
b 111 316 320 324 377 378 379 383
b 112 320 323 324 379 382 383
b 113 320 322 323 379 381 382
b 114 122 322 323 381 382
b 115 320 321 322 379 380 381
b 116 92 321 322 379 380
b 117 160 320 321 380 381
b 118 144 323 324 382 383
b 119 146 316 320 377 378
b 120 88 190 193 378 379
b 121 4 55 63 190 213 223 256 271 274 305 316 348 351 354 376
b 122 55 271 274 305 316 351 352 354
b 123 55 271 274 352 353 354
b 124 60 271 274 352 353
b 125 55 305 312 316 351 352
b 126 154 305 312 351 352
b 127 4 55 63 182 190 213 223 256 265 271 348 351 370 376
b 128 4 182 184 190 265 271 370 372 376
b 129 4 182 184 370 371 372
b 130 4 182 183 184 370 371
b 131 31 182 183 370 371
b 132 184 186 190 265 271 372 375 376
b 133 136 186 190 375 376
b 134 184 186 265 267 271 372 374 375
b 135 184 186 265 267 372 373 374
b 136 7 184 186 373 374
b 137 5 265 267 372 373
b 138 132 267 271 374 375
b 139 55 63 74 182 213 216 223 256 265 348 351 367 370
b 140 74 182 213 216 256 260 265 365 367
b 141 74 182 256 260 364 365
b 142 74 182 256 259 260 364
b 143 138 182 256 259 364
b 144 213 216 260 265 365 366 367
b 145 77 260 265 366 367
b 146 153 213 216 365 366
b 147 55 63 74 216 217 223 348 351 367 370
b 148 55 217 223 367 369 370
b 149 217 219 223 367 368 369
b 150 101 217 219 367 368
b 151 94 219 223 368 369
b 152 63 74 216 217 348 350 351
b 153 80 216 217 350 351
b 154 63 74 348 349 350
b 155 119 150 277 285 346 348
b 156 119 277 278 285 346 348
b 157 278 279 285 346 347 348
b 158 36 279 285 346 347
b 159 3 278 279 347 348
b 160 138 180 182 363 364
b 161 105 180 182 363 364
b 162 138 180 361 362 363
b 163 111 180 361 362 363
b 164 25 337 338
b 165 335 337 338
b 166 28 336 337
b 167 335 336 337
b 168 57 335 336
b 169 114 333 334
b 170 326 333 334
b 171 97 332 333
b 172 326 332 333
b 173 70 331 332
b 174 326 331 332
b 175 22 330 331
b 176 326 330 331
b 177 85 329 330
b 178 326 329 330
b 179 78 328 329
b 180 326 328 329
b 181 17 327 328
b 182 326 327 328
b 183 131 326 327
b 184 151 319 320
b 185 317 319 320
b 186 49 318 319
b 187 317 318 319
b 188 157 317 318
b 189 59 315 316
b 190 313 315 316
b 191 71 314 315
b 192 313 314 315
b 193 62 313 314
b 194 32 311 312
b 195 306 311 312
b 196 9 310 311
b 197 306 310 311
b 198 65 309 310
b 199 306 309 310
b 200 90 308 309
b 201 306 308 309
b 202 147 307 308
b 203 306 307 308
b 204 66 306 307
b 205 124 304 305
b 206 298 304 305
b 207 24 303 304
b 208 298 303 304
b 209 46 302 303
b 210 298 302 303
b 211 68 301 302
b 212 298 301 302
b 213 172 300 301
b 214 298 300 301
b 215 53 299 300
b 216 298 299 300
b 217 48 298 299
b 218 29 296 297
b 219 98 293 294
b 220 292 293 294
b 221 158 292 293
b 222 6 288 289
b 223 286 288 289
b 224 87 287 288
b 225 286 287 288
b 226 39 286 287
b 227 167 284 285
b 228 280 284 285
b 229 143 283 284
b 230 280 283 284
b 231 139 282 283
b 232 280 282 283
b 233 118 281 282
b 234 280 281 282
b 235 13 280 281
b 236 34 276 277
b 237 275 276 277
b 238 89 275 276
b 239 123 273 274
b 240 272 273 274
b 241 12 272 273
b 242 76 270 271
b 243 268 270 271
b 244 141 269 270
b 245 268 269 270
b 246 159 268 269
b 247 54 266 267
b 248 106 264 265
b 249 261 264 265
b 250 41 263 264
b 251 261 263 264
b 252 35 262 263
b 253 261 262 263
b 254 104 261 262
b 255 165 258 259
b 256 257 258 259
b 257 64 257 258
b 258 116 255 256
b 259 84 253 254
b 260 33 251 252
b 261 164 248 249
b 262 246 248 249
b 263 40 247 248
b 264 246 247 248
b 265 23 246 247
b 266 162 244 245
b 267 242 244 245
b 268 137 243 244
b 269 242 243 244
b 270 169 242 243
b 271 103 238 239
b 272 129 236 237
b 273 232 236 237
b 274 79 235 236
b 275 232 235 236
b 276 152 234 235
b 277 232 234 235
b 278 127 233 234
b 279 232 233 234
b 280 156 232 233
b 281 44 230 231
b 282 224 230 231
b 283 75 229 230
b 284 224 229 230
b 285 170 228 229
b 286 224 228 229
b 287 109 227 228
b 288 224 227 228
b 289 21 226 227
b 290 224 226 227
b 291 82 225 226
b 292 224 225 226
b 293 142 224 225
b 294 99 222 223
b 295 220 222 223
b 296 126 221 222
b 297 220 221 222
b 298 115 220 221
b 299 91 218 219
b 300 50 215 216
b 301 214 215 216
b 302 125 214 215
b 303 134 212 213
b 304 209 212 213
b 305 72 211 212
b 306 209 211 212
b 307 145 210 211
b 308 209 210 211
b 309 83 209 210
b 310 176 207 208
b 311 202 207 208
b 312 133 206 207
b 313 202 206 207
b 314 2 205 206
b 315 202 205 206
b 316 14 204 205
b 317 202 204 205
b 318 20 203 204
b 319 202 203 204
b 320 18 202 203
b 321 171 196 197
b 322 195 196 197
b 323 140 195 196
b 324 93 192 193
b 325 191 192 193
b 326 174 191 192
b 327 52 189 190
b 328 187 189 190
b 329 30 188 189
b 330 187 188 189
b 331 26 187 188
b 332 8 185 186
b 333 16 181 182
b 334 95 179 361
b 335 150 344 345
b 336 173 344 345
b 337 150 343 344
b 338 43 341 342
b 339 135 341 342
b 340 130 135 342
b 341 56 340 341
b 342 135 340 341
b 343 135 339 340
b 344 155 339 340
b 345 95 360 361
b 346 37 178 179
b 347 95 178 179
b 348 95 177 178
b 349 108 149
1 2
1 349
2 3
3 75
4 345
5 348
6 337
7 343
7 46
8 334
8 163
9 333
9 161
10 332
10 136
11 328
11 133
12 325
12 120
13 322
13 97
14 311
14 58
15 304
15 88
16 301
16 146
17 299
17 150
18 295
18 151
19 282
19 109
20 273
20 108
21 271
21 82
22 267
22 68
23 262
23 52
24 260
24 49
25 259
25 44
26 258
26 45
27 256
27 143
28 249
28 145
29 247
29 137
30 243
30 138
31 240
31 124
32 237
32 100
33 228
33 158
34 223
34 98
35 220
35 83
36 218
36 63
37 206
37 61
38 195
38 126
39 190
39 125
40 185
40 119
41 170
41 104
42 165
42 70
43 335
43 155
44 45
45 46
46 47
47 51
47 48
48 49
48 50
51 53
51 52
53 55
53 54
55 88
55 56
56 64
56 57
57 58
57 60
58 59
60 62
60 61
62 63
64 71
64 65
65 69
65 66
66 67
66 68
69 70
71 75
71 72
72 74
72 73
75 83
75 76
76 80
76 77
77 78
78 89
78 79
80 82
80 81
83 84
84 87
84 85
85 86
89 100
89 90
90 99
90 91
91 98
91 92
92 155
92 93
93 95
93 94
94 105
94 101
95 96
95 97
101 102
101 104
102 103
105 106
105 121
106 110
106 107
107 108
107 109
110 120
110 111
111 112
111 119
112 118
112 113
113 115
113 114
115 116
115 117
121 127
121 122
122 123
122 125
123 124
125 126
127 139
127 128
128 132
128 129
129 130
130 131
132 133
132 134
134 138
134 135
135 136
135 137
139 140
139 147
140 141
140 144
141 142
142 143
143 160
144 145
144 146
147 148
147 152
148 149
149 151
149 150
152 153
152 154
155 156
156 157
157 158
157 159
160 162
160 161
162 163
164 165
165 167
166 167
167 168
169 170
170 172
171 172
172 174
173 174
174 176
175 176
176 178
177 178
178 180
179 180
180 182
181 182
182 183
184 185
185 187
186 187
187 188
189 190
190 192
191 192
192 193
194 195
195 197
196 197
197 199
198 199
199 201
200 201
201 203
202 203
203 204
205 206
206 208
207 208
208 210
209 210
210 212
211 212
212 214
213 214
214 216
215 216
216 217
219 220
220 221
222 223
223 225
224 225
225 226
227 228
228 230
229 230
230 232
231 232
232 234
233 234
234 235
236 237
237 238
239 240
240 241
242 243
243 245
244 245
245 246
248 249
249 251
250 251
251 253
252 253
253 254
255 256
256 257
261 262
262 264
263 264
264 265
266 267
267 269
268 269
269 270
272 273
273 275
274 275
275 277
276 277
277 279
278 279
279 280
281 282
282 284
283 284
284 286
285 286
286 288
287 288
288 290
289 290
290 292
291 292
292 293
294 295
295 297
296 297
297 298
300 301
301 302
303 304
304 306
305 306
306 308
307 308
308 309
310 311
311 313
312 313
313 315
314 315
315 317
316 317
317 319
318 319
319 320
321 322
322 323
324 325
325 326
327 328
328 330
329 330
330 331
334 347
334 345
335 337
335 336
338 339
339 342
339 340
341 342
342 343
343 344
346 347
347 348
